100 157118
31 54 16 13 15 70 76 75 23 61 25 11 95 89 27 71 14 92 30 43 79 59 4 29 36 90 83 49 91 80 88 28 98 97 96 99 87 53 58 56 32 46 19 86 68 81 82 26 45 48 40 44 8 74 5 20 12 1 85 9 41 51 10 42 52 50 66 21 2 72 57 7 65 67 33 3 22 17 93 84 77 6 39 62 100 34 38 35 37 47 18 69 60 73 78 55 24 63 64 94 
